\ instance: ../TP/data.txt
\ model: basic from question 1


Maximize
profit: -9 x_0_0 -9 x_1_0 -9 x_0_1 -9 x_1_1 -9 x_0_2 -9 x_1_2 -9 x_0_3 -9 x_1_3 -9 x_0_4
 -9 x_1_4 -9 x_0_5 -9 x_1_5 -9 x_0_6 -9 x_1_6 -9 x_0_7 -9 x_1_7 -9 x_0_8 -9 x_1_8 -9 x_0_9
 -9 x_1_9 -9 x_0_10 -9 x_1_10 -9 x_0_11 -9 x_1_11 -11 y_0_0 -11 y_1_0 -11 y_0_1 -11 y_1_1 -11 y_0_2
 -11 y_1_2 -11 y_0_3 -11 y_1_3 -11 y_0_4 -11 y_1_4 -11 y_0_5 -11 y_1_5 -11 y_0_6 -11 y_1_6 -11 y_0_7
 -11 y_1_7 -11 y_0_8 -11 y_1_8 -11 y_0_9 -11 y_1_9 -11 y_0_10 -11 y_1_10 -11 y_0_11 -11 y_1_11 -11 y_0_12
 -11 y_1_12 +15 x_0_0 +15 x_1_0 +15 x_0_1 +15 x_1_1 +15 x_0_2 +15 x_1_2 +15 x_0_3 +15 x_1_3 +15 x_0_4
 +15 x_1_4 +15 x_0_5 +15 x_1_5 +15 x_0_6 +15 x_1_6 +15 x_0_7 +15 x_1_7 +15 x_0_8 +15 x_1_8 +15 x_0_9
 +15 x_1_9 +15 x_0_10 +15 x_1_10 +15 x_0_11 +15 x_1_11 +3.45e+07 cst

Subject to
stock_0_0: y_0_1 - y_0_0 - x_0_0 = -50000
stock_0_1: y_1_1 - y_1_0 - x_1_0 = -50000
stock_1_0: y_0_2 - y_0_1 - x_0_1 = -60000
stock_1_1: y_1_2 - y_1_1 - x_1_1 = -50000
stock_2_0: y_0_3 - y_0_2 - x_0_2 = -60000
stock_2_1: y_1_3 - y_1_2 - x_1_2 = -70000
stock_3_0: y_0_4 - y_0_3 - x_0_3 = -40000
stock_3_1: y_1_4 - y_1_3 - x_1_3 = -50000
stock_4_0: y_0_5 - y_0_4 - x_0_4 = -40000
stock_4_1: y_1_5 - y_1_4 - x_1_4 = -40000
stock_5_0: y_0_6 - y_0_5 - x_0_5 = -50000
stock_5_1: y_1_6 - y_1_5 - x_1_5 = -50000
stock_6_0: y_0_7 - y_0_6 - x_0_6 = -60000
stock_6_1: y_1_7 - y_1_6 - x_1_6 = -50000
stock_7_0: y_0_8 - y_0_7 - x_0_7 = -50000
stock_7_1: y_1_8 - y_1_7 - x_1_7 = -60000
stock_8_0: y_0_9 - y_0_8 - x_0_8 = -50000
stock_8_1: y_1_9 - y_1_8 - x_1_8 = -50000
stock_9_0: y_0_10 - y_0_9 - x_0_9 = -60000
stock_9_1: y_1_10 - y_1_9 - x_1_9 = -35000
stock_10_0: y_0_11 - y_0_10 - x_0_10 = -60000
stock_10_1: y_1_11 - y_1_10 - x_1_10 = -45000
stock_11_0: y_0_12 - y_0_11 - x_0_11 = -50000
stock_11_1: y_1_12 - y_1_11 - x_1_11 = -60000

capa_0: + x_0_0 + x_1_0 <= 120000
capa_1: + x_0_1 + x_1_1 <= 120000
capa_2: + x_0_2 + x_1_2 <= 120000
capa_3: + x_0_3 + x_1_3 <= 120000
capa_4: + x_0_4 + x_1_4 <= 120000
capa_5: + x_0_5 + x_1_5 <= 120000
capa_6: + x_0_6 + x_1_6 <= 120000
capa_7: + x_0_7 + x_1_7 <= 120000
capa_8: + x_0_8 + x_1_8 <= 120000
capa_9: + x_0_9 + x_1_9 <= 120000
capa_10: + x_0_10 + x_1_10 <= 120000
capa_11: + x_0_11 + x_1_11 <= 120000

Bounds
cst = 1
y_0_0 = 0
y_1_0 = 0

End
